log/Reading instance from file data/g03.dat
Number of nodes: 51
Number of edges: 176
initialize CPLEX ... done.
Calling CPLEX solve ...
Version identifier: 12.10.0.0 | 2019-11-26 | 843d4de
CPXPARAM_Threads                                 1
CPXPARAM_TimeLimit                               3600
CPXPARAM_WorkMem                                 8192
Tried aggregator 1 time.
MIP Presolve eliminated 103 rows and 52 columns.
MIP Presolve modified 548 coefficients.
Reduced MIP has 455 rows, 402 columns, and 1962 nonzeros.
Reduced MIP has 352 binaries, 50 generals, 0 SOSs, and 0 indicators.
Presolve time = 0.00 sec. (1.49 ticks)
Probing time = 0.00 sec. (0.83 ticks)
Tried aggregator 1 time.
Detecting symmetries...
Reduced MIP has 455 rows, 402 columns, and 1962 nonzeros.
Reduced MIP has 352 binaries, 50 generals, 0 SOSs, and 0 indicators.
Presolve time = 0.00 sec. (1.27 ticks)
Probing time = 0.00 sec. (0.86 ticks)
Clique table members: 478.
MIP emphasis: balance optimality and feasibility.
MIP search method: dynamic search.
Parallel mode: none, using 1 thread.
Root relaxation solution time = 0.00 sec. (1.47 ticks)

        Nodes                                         Cuts/
   Node  Left     Objective  IInf  Best Integer    Best Bound    ItCnt     Gap

      0     0      237.6364    24                    237.6364      120         
      0     0      308.5152    24                    Cuts: 43      202         
      0     0      445.4242    24                    Cuts: 68      240         
      0     0      582.7143    24                    Cuts: 29      275         
      0     0      637.4826    24                    Cuts: 23      300         
      0     0      659.3333    24                    Cuts: 18      309         
Detecting symmetries...
      0     0      695.2500    24                    Cuts: 20      323         
      0     0      710.0000    24                     Cuts: 9      342         
      0     0      710.0000    24                    Cuts: 18      353         
      0     0      710.0000    24                 Impl Bds: 2      355         
      0     0      710.0000    24                     Cuts: 4      357         
*     0+    0                          905.0000      710.0000            21.55%
*     0+    0                          725.0000      710.0000             2.07%
      0     0  -1.00000e+75     0      725.0000      710.0000      357    2.07%
Detecting symmetries...

Repeating presolve.
Tried aggregator 3 times.
MIP Presolve eliminated 366 rows and 326 columns.
MIP Presolve added 2 rows and 0 columns.
MIP Presolve modified 44 coefficients.
Aggregator did 7 substitutions.
Reduced MIP has 84 rows, 69 columns, and 276 nonzeros.
Reduced MIP has 52 binaries, 17 generals, 0 SOSs, and 0 indicators.
Presolve time = 0.00 sec. (0.95 ticks)
Probing fixed 8 vars, tightened 4 bounds.
Probing time = 0.00 sec. (0.07 ticks)
Cover probing fixed 0 vars, tightened 3 bounds.
Tried aggregator 1 time.
MIP Presolve eliminated 19 rows and 12 columns.
MIP Presolve modified 18 coefficients.
Reduced MIP has 65 rows, 57 columns, and 218 nonzeros.
Reduced MIP has 44 binaries, 13 generals, 0 SOSs, and 0 indicators.
Presolve time = 0.00 sec. (0.12 ticks)
Probing time = 0.00 sec. (0.06 ticks)
Tried aggregator 1 time.
Detecting symmetries...
Reduced MIP has 65 rows, 57 columns, and 218 nonzeros.
Reduced MIP has 44 binaries, 13 generals, 0 SOSs, and 0 indicators.
Presolve time = 0.00 sec. (0.15 ticks)
Represolve time = 0.00 sec. (1.98 ticks)
Probing time = 0.00 sec. (0.13 ticks)
Clique table members: 202.
MIP emphasis: balance optimality and feasibility.
MIP search method: dynamic search.
Parallel mode: none, using 1 thread.
Root relaxation solution time = 0.00 sec. (0.52 ticks)

        Nodes                                         Cuts/
   Node  Left     Objective  IInf  Best Integer    Best Bound    ItCnt     Gap

*     0+    0                          725.0000      710.0000             2.07%
      0     0      710.0000    13      725.0000      710.0000      425    2.07%
      0     0      711.1250    13      725.0000       Cuts: 8      439    1.91%
      0     0        cutoff            725.0000                    449    0.00%
Elapsed time = 0.07 sec. (46.75 ticks, tree = 0.01 MB, solutions = 2)

Clique cuts applied:  16
Implied bound cuts applied:  5
Zero-half cuts applied:  1
Lift and project cuts applied:  1
Gomory fractional cuts applied:  3

Root node processing (before b&c):
  Real time             =    0.07 sec. (46.77 ticks)
Sequential b&c:
  Real time             =    0.00 sec. (0.00 ticks)
                          ------------
Total (root+branch&cut) =    0.07 sec. (46.77 ticks)
SOLUTION:

x(0,22)[0..1]  = 1
x(8,17)[0..1]  = 1
x(16,21)[0..1]  = 1
x(16,23)[0..1]  = 1
x(17,24)[0..1]  = 1
x(22,31)[0..1]  = 1
x(24,33)[0..1]  = 1
x(18,8)[0..1]  = 1
x(31,16)[0..1]  = 1
x(31,18)[0..1]  = 1
z(8)[0..1]  = 1
z(16)[0..1]  = 1
z(17)[0..1]  = 1
z(18)[0..1]  = 1
z(21)[0..1]  = 1
z(22)[0..1]  = 1
z(23)[0..1]  = 1
z(24)[0..1]  = 1
z(31)[0..1]  = 1
z(33)[0..1]  = 1


CPLEX finished.

CPLEX status: Optimal
Branch-and-Bound nodes: 0
Objective value: 725
CPU time: 0.07

